s td 11 30 40
b 1 1 2 3 4 5 8 9 11 12 13 14 15 16 17 18 19 21 22 23 24 26 27 28 29 31 32 35 37 39 40
b 2 1 2 4 5 8 9 11 13 14 15 16 17 18 19 21 22 23 24 26 27 28 29 31 32 33 35 37 39 40
b 3 1 2 4 5 9 11 13 14 15 16 17 18 20 21 22 23 24 26 27 28 29 31 32 33 35 37 39 40
b 4 1 2 4 5 9 11 13 14 15 16 17 18 20 21 22 24 26 28 29 30 31 32 33 35 37 39 40
b 5 1 2 4 6 9 11 13 14 15 16 18 20 21 24 26 28 29 30 32 33 35 37 39 40
b 6 1 6 7 11 14 15 16 20 24 26 28 29 32 35 37
b 7 1 2 3 4 5 8 9 11 12 13 14 15 16 17 18 21 22 23 24 26 27 28 29 31 32 35 38 39 40
b 8 1 2 3 4 5 8 9 11 12 13 14 15 16 17 18 21 22 23 24 26 28 29 31 32 35 36 38 39 40
b 9 1 2 4 5 8 9 11 12 13 14 15 16 17 18 21 22 23 24 25 26 28 29 31 32 35 36 38 39 40
b 10 4 5 10 11 12 13 14 15 17 21 22 24 25 28 29 36
b 11 2 8 9 11 12 14 15 16 17 18 22 23 25 28 31 32 34 35 36 38 39 40
1 2
1 7
2 3
3 4
4 5
5 6
7 8
8 9
9 10
9 11
